p wcnf 24 63 95
1 1 0
1 3 0
1 5 0
1 7 0
10 27 17 18 0
10 28 19 20 0
10 -27 13 14 0
10 -28 15 16 0
10 -27 17 14 0
10 -28 19 16 0
10 21 22 0
10 23 24 0
10 25 26 0
95 -1 -3 0
95 -5 -7 0
95 -13 -1 0
95 -13 9 0
95 1 -9 13 0
95 -14 -3 0
95 -14 10 0
95 3 -10 14 0
95 -15 -5 0
95 -15 11 0
95 5 -11 15 0
95 -16 -7 0
95 -16 12 0
95 7 -12 16 0
95 -17 -1 0
95 -17 -9 0
95 1 9 17 0
95 -18 -3 0
95 -18 -10 0
95 3 10 18 0
95 -19 -5 0
95 -19 -11 0
95 5 11 19 0
95 -20 -7 0
95 -20 -12 0
95 7 12 20 0
95 -21 27 0
95 -21 -17 0
95 -21 -18 0
95 -27 17 18 21 0
95 -22 28 0
95 -22 -19 0
95 -22 -20 0
95 -28 19 20 22 0
95 -23 -27 0
95 -23 -13 0
95 -23 -14 0
95 27 13 14 23 0
95 -24 -28 0
95 -24 -15 0
95 -24 -16 0
95 28 15 16 24 0
95 -25 -27 0
95 -25 -17 0
95 -25 -14 0
95 27 17 14 25 0
95 -26 -28 0
95 -26 -19 0
95 -26 -16 0
95 28 19 16 26 0
